Timesteps: 1
s UNSATISFIABLE
real 0.43
user 0.05
sys 0.00
Timesteps: 2
s UNSATISFIABLE
real 0.43
user 0.10
sys 0.01
Timesteps: 3
s UNSATISFIABLE
real 0.47
user 0.18
sys 0.01
Timesteps: 4
s UNSATISFIABLE
real 0.87
user 0.58
sys 0.03
Timesteps: 5
s UNSATISFIABLE
real 1.64
user 1.34
sys 0.02
Timesteps: 6
s UNSATISFIABLE
real 7.00
user 6.11
sys 0.03
Timesteps: 7
s UNSATISFIABLE
real 15.68
user 14.60
sys 0.05
Timesteps: 8
s UNSATISFIABLE
real 28.85
user 27.52
sys 0.08
Timesteps: 9
s UNSATISFIABLE
real 38.33
user 36.82
sys 0.09
Timesteps: 10
s UNSATISFIABLE
real 39.92
user 38.24
sys 0.12
Timesteps: 11
s UNSATISFIABLE
real 74.38
user 72.50
sys 0.14
Timesteps: 12
s UNSATISFIABLE
real 152.20
user 150.69
sys 0.23
Timesteps: 13
s UNSATISFIABLE
real 455.55
user 452.28
sys 0.48
Timesteps: 14
s UNSATISFIABLE
real 1649.08
user 1640.59
sys 1.09
Timesteps: 15
